%SETS
JOBS     = 1..6;
MACHINES = 1..2;
SPEED    = 1;

time               = array3d(JOBS,MACHINES,1..SPEED,[64, 59, 48, 68, 49, 90, 96, 44, 81, 57, 61, 93]);
energy             = array3d(JOBS,MACHINES,1..SPEED,[52, 55, 61, 50, 61, 40, 38, 64, 44, 56, 54, 39]);
precedence         = array2d(JOBS,MACHINES,[0,1,1,0,0,1,1,0,0,1,1,0]);